p wcnf 103 125 126 
1 27 38 0 
1 -53 -14 0 
1 -65 5 0 
1 70 41 0 
1 87 20 0 
1 -94 -98 0 
1 3 -69 0 
1 9 92 0 
1 4 102 0 
1 98 38 0 
1 -72 48 0 
1 -86 -100 0 
1 -38 -48 0 
1 62 -71 0 
1 -65 -42 0 
1 -86 -40 0 
1 47 77 0 
1 3 78 0 
1 -32 -18 0 
1 101 -75 0 
1 57 -61 0 
1 -21 -25 0 
1 19 -59 0 
1 -97 -73 0 
1 -16 -31 0 
1 -34 36 0 
1 -47 -9 0 
1 -37 18 0 
1 -99 -47 0 
1 44 65 0 
1 98 -92 0 
1 -91 24 0 
1 -65 -55 0 
1 -18 73 0 
1 -51 75 0 
1 -82 26 0 
1 -14 -28 0 
1 -79 -52 0 
1 -20 -15 0 
1 80 -61 0 
1 25 96 0 
1 -45 55 0 
1 -70 12 0 
1 72 -73 0 
1 -60 -94 0 
1 7 96 0 
1 -2 -34 0 
1 35 17 0 
1 56 8 0 
1 -54 -91 0 
1 -28 84 0 
1 -78 42 0 
1 85 15 0 
1 71 24 0 
1 -25 -3 0 
1 8 -75 0 
1 -32 -3 0 
1 -36 -63 0 
1 54 -61 0 
1 2 16 0 
1 -77 22 0 
1 -76 5 0 
1 18 40 0 
1 50 -70 0 
1 23 -43 0 
1 68 -82 0 
1 -73 -58 0 
1 74 -31 0 
1 92 -73 0 
1 -32 66 0 
1 -88 39 0 
1 99 4 0 
1 99 -47 0 
1 74 -75 0 
1 71 93 0 
1 14 60 0 
1 94 100 0 
1 -9 -29 0 
1 59 100 0 
1 8 -5 0 
1 5 29 0 
1 34 -74 0 
1 29 67 0 
1 29 68 0 
1 26 -66 0 
1 101 -84 0 
1 27 13 0 
1 18 90 0 
1 37 -24 0 
1 69 26 0 
1 -10 -27 0 
1 -39 5 0 
1 50 -16 0 
1 14 -102 0 
1 -8 77 0 
1 45 -3 0 
1 5 -49 0 
1 6 -14 0 
1 83 30 0 
1 -69 80 0 
1 18 38 0 
1 -29 -95 0 
1 -25 58 0 
1 -75 88 0 
1 -19 -66 0 
1 26 -2 0 
1 -54 2 0 
1 4 74 0 
1 101 -30 0 
1 14 -78 0 
1 -100 96 0 
1 -41 -32 0 
1 36 72 0 
1 -96 -28 0 
1 -47 -18 0 
1 -87 84 0 
1 -94 72 0 
1 99 56 0 
1 -13 47 0 
1 56 -81 0 
1 -58 -13 0 
1 -8 -47 0 
1 94 88 0 
1 6 8 0 
1 -91 -12 0 
